h=9;
w=9;
s=3;
b=[|0,0,0,0,0,0,0,0,0|1,8,2,0,7,9,6,3,5|0,0,5,0,0,0,0,0,0|4,9,0,8,0,0,0,2,0|0,2,0,0,0,0,0,0,0|0,0,7,0,2,6,0,9,0|6,0,0,0,0,0,0,0,9|0,0,9,0,0,7,0,6,0|0,7,0,0,6,0,1,0,4|];
t=[|1,0,0,1,1,0,0,1,1|1,0,0,0,1,1,0,1,1|1,1,1,0,0,1,1,0,0|0,1,0,0,1,1,1,0,1|1,0,0,1,1,0,1,1,0|1,1,1,1,0,0,0,1,0|0,0,1,0,1,0,1,1,1|0,1,1,1,0,1,0,0,1|0,1,1,1,0,1,1,0,0|];
